p cnf 969 2490
51 -2 -1 0
-51 2 0
-51 1 0
52 -51 -702 0
-52 51 0
-52 702 0
53 -5 -4 0
-53 5 0
-53 4 0
54 -53 -6 0
-54 53 0
-54 6 0
55 -703 -704 0
-55 703 0
-55 704 0
56 -8 -7 0
-56 8 0
-56 7 0
57 -56 -9 0
-57 56 0
-57 9 0
58 -705 -55 0
-58 705 0
-58 55 0
59 -706 -8 0
-59 706 0
-59 8 0
60 -59 -11 0
-60 59 0
-60 11 0
61 -707 -58 0
-61 707 0
-61 58 0
62 -12 -708 0
-62 12 0
-62 708 0
63 -62 -13 0
-63 62 0
-63 13 0
64 -709 -61 0
-64 709 0
-64 61 0
65 -15 -14 0
-65 15 0
-65 14 0
66 -65 -710 0
-66 65 0
-66 710 0
67 -711 -64 0
-67 711 0
-67 64 0
68 -712 -706 0
-68 712 0
-68 706 0
69 -68 -713 0
-69 68 0
-69 713 0
70 -714 -67 0
-70 714 0
-70 67 0
71 -19 -11 0
-71 19 0
-71 11 0
72 -71 -9 0
-72 71 0
-72 9 0
73 -715 -70 0
-73 715 0
-73 70 0
74 -716 -702 0
-74 716 0
-74 702 0
75 -74 -21 0
-75 74 0
-75 21 0
76 -717 -73 0
-76 717 0
-76 73 0
77 -12 -2 0
-77 12 0
-77 2 0
78 -77 -718 0
-78 77 0
-78 718 0
79 -719 -76 0
-79 719 0
-79 76 0
80 -22 -14 0
-80 22 0
-80 14 0
81 -80 -720 0
-81 80 0
-81 720 0
82 -721 -79 0
-82 721 0
-82 79 0
83 -722 -8 0
-83 722 0
-83 8 0
84 -83 -723 0
-84 83 0
-84 723 0
85 -724 -82 0
-85 724 0
-85 82 0
86 -25 -713 0
-86 25 0
-86 713 0
87 -86 -725 0
-87 86 0
-87 725 0
88 -726 -85 0
-88 726 0
-88 85 0
89 -26 -5 0
-89 26 0
-89 5 0
90 -89 -727 0
-90 89 0
-90 727 0
91 -728 -88 0
-91 728 0
-91 88 0
92 -716 -9 0
-92 716 0
-92 9 0
93 -92 -27 0
-93 92 0
-93 27 0
94 -729 -91 0
-94 729 0
-94 91 0
95 -28 -730 0
-95 28 0
-95 730 0
96 -95 -731 0
-96 95 0
-96 731 0
97 -732 -94 0
-97 732 0
-97 94 0
98 -15 -733 0
-98 15 0
-98 733 0
99 -98 -731 0
-99 98 0
-99 731 0
100 -734 -97 0
-100 734 0
-100 97 0
101 -22 -1 0
-101 22 0
-101 1 0
102 -101 -735 0
-102 101 0
-102 735 0
103 -736 -100 0
-103 736 0
-103 100 0
104 -737 -12 0
-104 737 0
-104 12 0
105 -104 -738 0
-105 104 0
-105 738 0
106 -739 -103 0
-106 739 0
-106 103 0
107 -740 -1 0
-107 740 0
-107 1 0
108 -107 -18 0
-108 107 0
-108 18 0
109 -741 -106 0
-109 741 0
-109 106 0
110 -742 -21 0
-110 742 0
-110 21 0
111 -110 -743 0
-111 110 0
-111 743 0
112 -744 -109 0
-112 744 0
-112 109 0
113 -745 -35 0
-113 745 0
-113 35 0
114 -113 -746 0
-114 113 0
-114 746 0
115 -747 -112 0
-115 747 0
-115 112 0
116 -37 -748 0
-116 37 0
-116 748 0
117 -116 -749 0
-117 116 0
-117 749 0
118 -750 -115 0
-118 750 0
-118 115 0
119 -22 -710 0
-119 22 0
-119 710 0
120 -119 -751 0
-120 119 0
-120 751 0
121 -752 -118 0
-121 752 0
-121 118 0
122 -722 -706 0
-122 722 0
-122 706 0
123 -122 -24 0
-123 122 0
-123 24 0
124 -753 -121 0
-124 753 0
-124 121 0
125 -754 -37 0
-125 754 0
-125 37 0
126 -125 -40 0
-126 125 0
-126 40 0
127 -755 -124 0
-127 755 0
-127 124 0
128 -756 -757 0
-128 756 0
-128 757 0
129 -128 -746 0
-129 128 0
-129 746 0
130 -758 -127 0
-130 758 0
-130 127 0
131 -759 -32 0
-131 759 0
-131 32 0
132 -131 -5 0
-132 131 0
-132 5 0
133 -760 -130 0
-133 760 0
-133 130 0
134 -43 -16 0
-134 43 0
-134 16 0
135 -134 -21 0
-135 134 0
-135 21 0
136 -761 -133 0
-136 761 0
-136 133 0
137 -762 -756 0
-137 762 0
-137 756 0
138 -137 -751 0
-138 137 0
-138 751 0
139 -763 -136 0
-139 763 0
-139 136 0
140 -762 -22 0
-140 762 0
-140 22 0
141 -140 -749 0
-141 140 0
-141 749 0
142 -764 -139 0
-142 764 0
-142 139 0
143 -13 -7 0
-143 13 0
-143 7 0
144 -143 -765 0
-144 143 0
-144 765 0
145 -766 -142 0
-145 766 0
-145 142 0
146 -745 -757 0
-146 745 0
-146 757 0
147 -146 -767 0
-147 146 0
-147 767 0
148 -768 -145 0
-148 768 0
-148 145 0
149 -43 -10 0
-149 43 0
-149 10 0
150 -149 -742 0
-150 149 0
-150 742 0
151 -769 -148 0
-151 769 0
-151 148 0
152 -710 -706 0
-152 710 0
-152 706 0
153 -152 -751 0
-153 152 0
-153 751 0
154 -770 -151 0
-154 770 0
-154 151 0
155 -41 -737 0
-155 41 0
-155 737 0
156 -155 -733 0
-156 155 0
-156 733 0
157 -771 -154 0
-157 771 0
-157 154 0
158 -749 -716 0
-158 749 0
-158 716 0
159 -158 -723 0
-159 158 0
-159 723 0
160 -772 -157 0
-160 772 0
-160 157 0
161 -773 -720 0
-161 773 0
-161 720 0
162 -161 -9 0
-162 161 0
-162 9 0
163 -774 -160 0
-163 774 0
-163 160 0
164 -775 -716 0
-164 775 0
-164 716 0
165 -164 -13 0
-165 164 0
-165 13 0
166 -776 -163 0
-166 776 0
-166 163 0
167 -45 -759 0
-167 45 0
-167 759 0
168 -167 -40 0
-168 167 0
-168 40 0
169 -777 -166 0
-169 777 0
-169 166 0
170 -767 -725 0
-170 767 0
-170 725 0
171 -170 -723 0
-171 170 0
-171 723 0
172 -778 -169 0
-172 778 0
-172 169 0
173 -18 -7 0
-173 18 0
-173 7 0
174 -173 -723 0
-174 173 0
-174 723 0
175 -779 -172 0
-175 779 0
-175 172 0
176 -46 -15 0
-176 46 0
-176 15 0
177 -176 -23 0
-177 176 0
-177 23 0
178 -780 -175 0
-178 780 0
-178 175 0
179 -712 -702 0
-179 712 0
-179 702 0
180 -179 -36 0
-180 179 0
-180 36 0
181 -781 -178 0
-181 781 0
-181 178 0
182 -46 -775 0
-182 46 0
-182 775 0
183 -182 -38 0
-183 182 0
-183 38 0
184 -782 -181 0
-184 782 0
-184 181 0
185 -21 -19 0
-185 21 0
-185 19 0
186 -185 -731 0
-186 185 0
-186 731 0
187 -783 -184 0
-187 783 0
-187 184 0
188 -748 -746 0
-188 748 0
-188 746 0
189 -188 -731 0
-189 188 0
-189 731 0
190 -784 -187 0
-190 784 0
-190 187 0
191 -39 -25 0
-191 39 0
-191 25 0
192 -191 -28 0
-192 191 0
-192 28 0
193 -785 -190 0
-193 785 0
-193 190 0
194 -718 -786 0
-194 718 0
-194 786 0
195 -194 -710 0
-195 194 0
-195 710 0
196 -787 -193 0
-196 787 0
-196 193 0
197 -712 -6 0
-197 712 0
-197 6 0
198 -197 -23 0
-198 197 0
-198 23 0
199 -788 -196 0
-199 788 0
-199 196 0
200 -789 -702 0
-200 789 0
-200 702 0
201 -200 -45 0
-201 200 0
-201 45 0
202 -790 -199 0
-202 790 0
-202 199 0
203 -38 -720 0
-203 38 0
-203 720 0
204 -203 -767 0
-204 203 0
-204 767 0
205 -791 -202 0
-205 791 0
-205 202 0
206 -792 -28 0
-206 792 0
-206 28 0
207 -206 -27 0
-207 206 0
-207 27 0
208 -793 -205 0
-208 793 0
-208 205 0
209 -41 -4 0
-209 41 0
-209 4 0
210 -209 -749 0
-210 209 0
-210 749 0
211 -794 -208 0
-211 794 0
-211 208 0
212 -795 -702 0
-212 795 0
-212 702 0
213 -212 -754 0
-213 212 0
-213 754 0
214 -796 -211 0
-214 796 0
-214 211 0
215 -38 -36 0
-215 38 0
-215 36 0
216 -215 -797 0
-216 215 0
-216 797 0
217 -798 -214 0
-217 798 0
-217 214 0
218 -799 -4 0
-218 799 0
-218 4 0
219 -218 -720 0
-219 218 0
-219 720 0
220 -800 -217 0
-220 800 0
-220 217 0
221 -759 -36 0
-221 759 0
-221 36 0
222 -221 -749 0
-222 221 0
-222 749 0
223 -801 -220 0
-223 801 0
-223 220 0
224 -795 -25 0
-224 795 0
-224 25 0
225 -224 -802 0
-225 224 0
-225 802 0
226 -803 -223 0
-226 803 0
-226 223 0
227 -49 -742 0
-227 49 0
-227 742 0
228 -227 -723 0
-228 227 0
-228 723 0
229 -804 -226 0
-229 804 0
-229 226 0
230 -16 -10 0
-230 16 0
-230 10 0
231 -230 -725 0
-231 230 0
-231 725 0
232 -805 -229 0
-232 805 0
-232 229 0
233 -39 -34 0
-233 39 0
-233 34 0
234 -233 -11 0
-234 233 0
-234 11 0
235 -806 -232 0
-235 806 0
-235 232 0
236 -789 -706 0
-236 789 0
-236 706 0
237 -236 -20 0
-237 236 0
-237 20 0
238 -807 -235 0
-238 807 0
-238 235 0
239 -36 -712 0
-239 36 0
-239 712 0
240 -239 -39 0
-240 239 0
-240 39 0
241 -808 -238 0
-241 808 0
-241 238 0
242 -756 -37 0
-242 756 0
-242 37 0
243 -242 -809 0
-243 242 0
-243 809 0
244 -810 -241 0
-244 810 0
-244 241 0
245 -742 -722 0
-245 742 0
-245 722 0
246 -245 -13 0
-246 245 0
-246 13 0
247 -811 -244 0
-247 811 0
-247 244 0
248 -812 -722 0
-248 812 0
-248 722 0
249 -248 -29 0
-249 248 0
-249 29 0
250 -813 -247 0
-250 813 0
-250 247 0
251 -14 -786 0
-251 14 0
-251 786 0
252 -251 -38 0
-252 251 0
-252 38 0
253 -814 -250 0
-253 814 0
-253 250 0
254 -756 -730 0
-254 756 0
-254 730 0
255 -254 -24 0
-255 254 0
-255 24 0
256 -815 -253 0
-256 815 0
-256 253 0
257 -775 -1 0
-257 775 0
-257 1 0
258 -257 -5 0
-258 257 0
-258 5 0
259 -816 -256 0
-259 816 0
-259 256 0
260 -41 -25 0
-260 41 0
-260 25 0
261 -260 -45 0
-261 260 0
-261 45 0
262 -817 -259 0
-262 817 0
-262 259 0
263 -19 -712 0
-263 19 0
-263 712 0
264 -263 -727 0
-264 263 0
-264 727 0
265 -818 -262 0
-265 818 0
-265 262 0
266 -819 -733 0
-266 819 0
-266 733 0
267 -266 -21 0
-267 266 0
-267 21 0
268 -820 -265 0
-268 820 0
-268 265 0
269 -45 -767 0
-269 45 0
-269 767 0
270 -269 -24 0
-270 269 0
-270 24 0
271 -821 -268 0
-271 821 0
-271 268 0
272 -756 -716 0
-272 756 0
-272 716 0
273 -272 -765 0
-273 272 0
-273 765 0
274 -822 -271 0
-274 822 0
-274 271 0
275 -41 -748 0
-275 41 0
-275 748 0
276 -275 -738 0
-276 275 0
-276 738 0
277 -823 -274 0
-277 823 0
-277 274 0
278 -754 -4 0
-278 754 0
-278 4 0
279 -278 -8 0
-279 278 0
-279 8 0
280 -824 -277 0
-280 824 0
-280 277 0
281 -738 -31 0
-281 738 0
-281 31 0
282 -281 -754 0
-282 281 0
-282 754 0
283 -825 -280 0
-283 825 0
-283 280 0
284 -738 -706 0
-284 738 0
-284 706 0
285 -284 -29 0
-285 284 0
-285 29 0
286 -826 -283 0
-286 826 0
-286 283 0
287 -740 -15 0
-287 740 0
-287 15 0
288 -287 -23 0
-288 287 0
-288 23 0
289 -827 -286 0
-289 827 0
-289 286 0
290 -828 -795 0
-290 828 0
-290 795 0
291 -290 -9 0
-291 290 0
-291 9 0
292 -829 -289 0
-292 829 0
-292 289 0
293 -31 -15 0
-293 31 0
-293 15 0
294 -293 -30 0
-294 293 0
-294 30 0
295 -830 -292 0
-295 830 0
-295 292 0
296 -759 -708 0
-296 759 0
-296 708 0
297 -296 -28 0
-297 296 0
-297 28 0
298 -831 -295 0
-298 831 0
-298 295 0
299 -45 -40 0
-299 45 0
-299 40 0
300 -299 -751 0
-300 299 0
-300 751 0
301 -832 -298 0
-301 832 0
-301 298 0
302 -34 -14 0
-302 34 0
-302 14 0
303 -302 -28 0
-303 302 0
-303 28 0
304 -833 -301 0
-304 833 0
-304 301 0
305 -812 -14 0
-305 812 0
-305 14 0
306 -305 -754 0
-306 305 0
-306 754 0
307 -834 -304 0
-307 834 0
-307 304 0
308 -28 -9 0
-308 28 0
-308 9 0
309 -308 -29 0
-309 308 0
-309 29 0
310 -835 -307 0
-310 835 0
-310 307 0
311 -802 -4 0
-311 802 0
-311 4 0
312 -311 -727 0
-312 311 0
-312 727 0
313 -836 -310 0
-313 836 0
-313 310 0
314 -775 -773 0
-314 775 0
-314 773 0
315 -314 -743 0
-315 314 0
-315 743 0
316 -837 -313 0
-316 837 0
-316 313 0
317 -795 -737 0
-317 795 0
-317 737 0
318 -317 -748 0
-318 317 0
-318 748 0
319 -838 -316 0
-319 838 0
-319 316 0
320 -839 -716 0
-320 839 0
-320 716 0
321 -320 -16 0
-321 320 0
-321 16 0
322 -840 -319 0
-322 840 0
-322 319 0
323 -37 -33 0
-323 37 0
-323 33 0
324 -323 -748 0
-324 323 0
-324 748 0
325 -841 -322 0
-325 841 0
-325 322 0
326 -740 -2 0
-326 740 0
-326 2 0
327 -326 -765 0
-327 326 0
-327 765 0
328 -842 -325 0
-328 842 0
-328 325 0
329 -762 -2 0
-329 762 0
-329 2 0
330 -329 -751 0
-330 329 0
-330 751 0
331 -843 -328 0
-331 843 0
-331 328 0
332 -38 -5 0
-332 38 0
-332 5 0
333 -332 -735 0
-333 332 0
-333 735 0
334 -844 -331 0
-334 844 0
-334 331 0
335 -773 -12 0
-335 773 0
-335 12 0
336 -335 -809 0
-336 335 0
-336 809 0
337 -845 -334 0
-337 845 0
-337 334 0
338 -31 -710 0
-338 31 0
-338 710 0
339 -338 -767 0
-339 338 0
-339 767 0
340 -846 -337 0
-340 846 0
-340 337 0
341 -32 -26 0
-341 32 0
-341 26 0
342 -341 -723 0
-342 341 0
-342 723 0
343 -847 -340 0
-343 847 0
-343 340 0
344 -716 -727 0
-344 716 0
-344 727 0
345 -344 -40 0
-345 344 0
-345 40 0
346 -848 -343 0
-346 848 0
-346 343 0
347 -748 -786 0
-347 748 0
-347 786 0
348 -347 -13 0
-348 347 0
-348 13 0
349 -849 -346 0
-349 849 0
-349 346 0
350 -795 -712 0
-350 795 0
-350 712 0
351 -350 -48 0
-351 350 0
-351 48 0
352 -850 -349 0
-352 850 0
-352 349 0
353 -42 -4 0
-353 42 0
-353 4 0
354 -353 -27 0
-354 353 0
-354 27 0
355 -851 -352 0
-355 851 0
-355 352 0
356 -773 -786 0
-356 773 0
-356 786 0
357 -356 -797 0
-357 356 0
-357 797 0
358 -852 -355 0
-358 852 0
-358 355 0
359 -15 -2 0
-359 15 0
-359 2 0
360 -359 -30 0
-360 359 0
-360 30 0
361 -853 -358 0
-361 853 0
-361 358 0
362 -20 -3 0
-362 20 0
-362 3 0
363 -362 -720 0
-363 362 0
-363 720 0
364 -854 -361 0
-364 854 0
-364 361 0
365 -45 -748 0
-365 45 0
-365 748 0
366 -365 -718 0
-366 365 0
-366 718 0
367 -855 -364 0
-367 855 0
-367 364 0
368 -43 -759 0
-368 43 0
-368 759 0
369 -368 -722 0
-369 368 0
-369 722 0
370 -856 -367 0
-370 856 0
-370 367 0
371 -26 -706 0
-371 26 0
-371 706 0
372 -371 -731 0
-372 371 0
-372 731 0
373 -857 -370 0
-373 857 0
-373 370 0
374 -6 -2 0
-374 6 0
-374 2 0
375 -374 -720 0
-375 374 0
-375 720 0
376 -858 -373 0
-376 858 0
-376 373 0
377 -7 -859 0
-377 7 0
-377 859 0
378 -377 -9 0
-378 377 0
-378 9 0
379 -860 -376 0
-379 860 0
-379 376 0
380 -861 -1 0
-380 861 0
-380 1 0
381 -380 -708 0
-381 380 0
-381 708 0
382 -862 -379 0
-382 862 0
-382 379 0
383 -795 -4 0
-383 795 0
-383 4 0
384 -383 -718 0
-384 383 0
-384 718 0
385 -863 -382 0
-385 863 0
-385 382 0
386 -773 -25 0
-386 773 0
-386 25 0
387 -386 -5 0
-387 386 0
-387 5 0
388 -864 -385 0
-388 864 0
-388 385 0
389 -50 -730 0
-389 50 0
-389 730 0
390 -389 -757 0
-390 389 0
-390 757 0
391 -865 -388 0
-391 865 0
-391 388 0
392 -737 -17 0
-392 737 0
-392 17 0
393 -392 -8 0
-393 392 0
-393 8 0
394 -866 -391 0
-394 866 0
-394 391 0
395 -792 -34 0
-395 792 0
-395 34 0
396 -395 -18 0
-396 395 0
-396 18 0
397 -867 -394 0
-397 867 0
-397 394 0
398 -828 -44 0
-398 828 0
-398 44 0
399 -398 -24 0
-399 398 0
-399 24 0
400 -868 -397 0
-400 868 0
-400 397 0
401 -756 -859 0
-401 756 0
-401 859 0
402 -401 -16 0
-402 401 0
-402 16 0
403 -869 -400 0
-403 869 0
-403 400 0
404 -47 -737 0
-404 47 0
-404 737 0
405 -404 -26 0
-405 404 0
-405 26 0
406 -870 -403 0
-406 870 0
-406 403 0
407 -31 -720 0
-407 31 0
-407 720 0
408 -407 -723 0
-408 407 0
-408 723 0
409 -871 -406 0
-409 871 0
-409 406 0
410 -828 -773 0
-410 828 0
-410 773 0
411 -410 -720 0
-411 410 0
-411 720 0
412 -872 -409 0
-412 872 0
-412 409 0
413 -17 -2 0
-413 17 0
-413 2 0
414 -413 -13 0
-414 413 0
-414 13 0
415 -873 -412 0
-415 873 0
-415 412 0
416 -742 -33 0
-416 742 0
-416 33 0
417 -416 -828 0
-417 416 0
-417 828 0
418 -874 -415 0
-418 874 0
-418 415 0
419 -861 -742 0
-419 861 0
-419 742 0
420 -419 -16 0
-420 419 0
-420 16 0
421 -875 -418 0
-421 875 0
-421 418 0
422 -36 -722 0
-422 36 0
-422 722 0
423 -422 -713 0
-423 422 0
-423 713 0
424 -876 -421 0
-424 876 0
-424 421 0
425 -861 -786 0
-425 861 0
-425 786 0
426 -425 -6 0
-426 425 0
-426 6 0
427 -877 -424 0
-427 877 0
-427 424 0
428 -718 -706 0
-428 718 0
-428 706 0
429 -428 -40 0
-429 428 0
-429 40 0
430 -878 -427 0
-430 878 0
-430 427 0
431 -47 -14 0
-431 47 0
-431 14 0
432 -431 -13 0
-432 431 0
-432 13 0
433 -879 -430 0
-433 879 0
-433 430 0
434 -48 -26 0
-434 48 0
-434 26 0
435 -434 -19 0
-435 434 0
-435 19 0
436 -880 -433 0
-436 880 0
-436 433 0
437 -31 -1 0
-437 31 0
-437 1 0
438 -437 -722 0
-438 437 0
-438 722 0
439 -881 -436 0
-439 881 0
-439 436 0
440 -22 -746 0
-440 22 0
-440 746 0
441 -440 -18 0
-441 440 0
-441 18 0
442 -882 -439 0
-442 882 0
-442 439 0
443 -713 -786 0
-443 713 0
-443 786 0
444 -443 -809 0
-444 443 0
-444 809 0
445 -883 -442 0
-445 883 0
-445 442 0
446 -116 -713 0
-446 116 0
-446 713 0
447 -884 -445 0
-447 884 0
-447 445 0
448 -792 -725 0
-448 792 0
-448 725 0
449 -448 -29 0
-449 448 0
-449 29 0
450 -885 -447 0
-450 885 0
-450 447 0
451 -797 -17 0
-451 797 0
-451 17 0
452 -451 -710 0
-452 451 0
-452 710 0
453 -886 -450 0
-453 886 0
-453 450 0
454 -756 -10 0
-454 756 0
-454 10 0
455 -454 -29 0
-455 454 0
-455 29 0
456 -887 -453 0
-456 887 0
-456 453 0
457 -48 -799 0
-457 48 0
-457 799 0
458 -457 -5 0
-458 457 0
-458 5 0
459 -888 -456 0
-459 888 0
-459 456 0
460 -828 -859 0
-460 828 0
-460 859 0
461 -460 -809 0
-461 460 0
-461 809 0
462 -889 -459 0
-462 889 0
-462 459 0
463 -50 -745 0
-463 50 0
-463 745 0
464 -463 -797 0
-464 463 0
-464 797 0
465 -890 -462 0
-465 890 0
-465 462 0
466 -22 -19 0
-466 22 0
-466 19 0
467 -466 -765 0
-467 466 0
-467 765 0
468 -891 -465 0
-468 891 0
-468 465 0
469 -31 -18 0
-469 31 0
-469 18 0
470 -469 -735 0
-470 469 0
-470 735 0
471 -892 -468 0
-471 892 0
-471 468 0
472 -740 -4 0
-472 740 0
-472 4 0
473 -472 -720 0
-473 472 0
-473 720 0
474 -893 -471 0
-474 893 0
-474 471 0
475 -759 -31 0
-475 759 0
-475 31 0
476 -475 -743 0
-476 475 0
-476 743 0
477 -894 -474 0
-477 894 0
-477 474 0
478 -861 -26 0
-478 861 0
-478 26 0
479 -478 -13 0
-479 478 0
-479 13 0
480 -895 -477 0
-480 895 0
-480 477 0
481 -754 -712 0
-481 754 0
-481 712 0
482 -481 -11 0
-482 481 0
-482 11 0
483 -896 -480 0
-483 896 0
-483 480 0
484 -792 -740 0
-484 792 0
-484 740 0
485 -484 -28 0
-485 484 0
-485 28 0
486 -897 -483 0
-486 897 0
-486 483 0
487 -35 -746 0
-487 35 0
-487 746 0
488 -487 -40 0
-488 487 0
-488 40 0
489 -898 -486 0
-489 898 0
-489 486 0
490 -767 -11 0
-490 767 0
-490 11 0
491 -490 -731 0
-491 490 0
-491 731 0
492 -899 -489 0
-492 899 0
-492 489 0
493 -828 -20 0
-493 828 0
-493 20 0
494 -493 -13 0
-494 493 0
-494 13 0
495 -900 -492 0
-495 900 0
-495 492 0
496 -38 -722 0
-496 38 0
-496 722 0
497 -496 -18 0
-497 496 0
-497 18 0
498 -901 -495 0
-498 901 0
-498 495 0
499 -15 -5 0
-499 15 0
-499 5 0
500 -499 -720 0
-500 499 0
-500 720 0
501 -902 -498 0
-501 902 0
-501 498 0
502 -19 -5 0
-502 19 0
-502 5 0
503 -502 -13 0
-503 502 0
-503 13 0
504 -903 -501 0
-504 903 0
-504 501 0
505 -745 -748 0
-505 745 0
-505 748 0
506 -505 -6 0
-506 505 0
-506 6 0
507 -904 -504 0
-507 904 0
-507 504 0
508 -713 -819 0
-508 713 0
-508 819 0
509 -508 -727 0
-509 508 0
-509 727 0
510 -905 -507 0
-510 905 0
-510 507 0
511 -50 -18 0
-511 50 0
-511 18 0
512 -511 -754 0
-512 511 0
-512 754 0
513 -906 -510 0
-513 906 0
-513 510 0
514 -38 -716 0
-514 38 0
-514 716 0
515 -514 -13 0
-515 514 0
-515 13 0
516 -907 -513 0
-516 907 0
-516 513 0
517 -725 -748 0
-517 725 0
-517 748 0
518 -517 -28 0
-518 517 0
-518 28 0
519 -908 -516 0
-519 908 0
-519 516 0
520 -40 -839 0
-520 40 0
-520 839 0
521 -520 -751 0
-521 520 0
-521 751 0
522 -909 -519 0
-522 909 0
-522 519 0
523 -737 -20 0
-523 737 0
-523 20 0
524 -523 -731 0
-524 523 0
-524 731 0
525 -910 -522 0
-525 910 0
-525 522 0
526 -22 -712 0
-526 22 0
-526 712 0
527 -526 -9 0
-527 526 0
-527 9 0
528 -911 -525 0
-528 911 0
-528 525 0
529 -42 -742 0
-529 42 0
-529 742 0
530 -529 -13 0
-530 529 0
-530 13 0
531 -912 -528 0
-531 912 0
-531 528 0
532 -861 -35 0
-532 861 0
-532 35 0
533 -532 -740 0
-533 532 0
-533 740 0
534 -913 -531 0
-534 913 0
-534 531 0
535 -37 -706 0
-535 37 0
-535 706 0
536 -535 -722 0
-536 535 0
-536 722 0
537 -914 -534 0
-537 914 0
-537 534 0
538 -36 -797 0
-538 36 0
-538 797 0
539 -538 -754 0
-539 538 0
-539 754 0
540 -915 -537 0
-540 915 0
-540 537 0
541 -25 -16 0
-541 25 0
-541 16 0
542 -541 -28 0
-542 541 0
-542 28 0
543 -916 -540 0
-543 916 0
-543 540 0
544 -38 -740 0
-544 38 0
-544 740 0
545 -544 -819 0
-545 544 0
-545 819 0
546 -917 -543 0
-546 917 0
-546 543 0
547 -49 -8 0
-547 49 0
-547 8 0
548 -547 -24 0
-548 547 0
-548 24 0
549 -918 -546 0
-549 918 0
-549 546 0
550 -18 -4 0
-550 18 0
-550 4 0
551 -550 -727 0
-551 550 0
-551 727 0
552 -919 -549 0
-552 919 0
-552 549 0
553 -25 -712 0
-553 25 0
-553 712 0
554 -553 -716 0
-554 553 0
-554 716 0
555 -920 -552 0
-555 920 0
-555 552 0
556 -716 -14 0
-556 716 0
-556 14 0
557 -556 -702 0
-557 556 0
-557 702 0
558 -921 -555 0
-558 921 0
-558 555 0
559 -35 -720 0
-559 35 0
-559 720 0
560 -559 -8 0
-560 559 0
-560 8 0
561 -922 -558 0
-561 922 0
-561 558 0
562 -745 -34 0
-562 745 0
-562 34 0
563 -562 -13 0
-563 562 0
-563 13 0
564 -923 -561 0
-564 923 0
-564 561 0
565 -745 -859 0
-565 745 0
-565 859 0
566 -565 -13 0
-566 565 0
-566 13 0
567 -924 -564 0
-567 924 0
-567 564 0
568 -15 -7 0
-568 15 0
-568 7 0
569 -568 -720 0
-569 568 0
-569 720 0
570 -925 -567 0
-570 925 0
-570 567 0
571 -23 -14 0
-571 23 0
-571 14 0
572 -571 -765 0
-572 571 0
-572 765 0
573 -926 -570 0
-573 926 0
-573 570 0
574 -31 -25 0
-574 31 0
-574 25 0
575 -574 -713 0
-575 574 0
-575 713 0
576 -927 -573 0
-576 927 0
-576 573 0
577 -12 -10 0
-577 12 0
-577 10 0
578 -577 -730 0
-578 577 0
-578 730 0
579 -928 -576 0
-579 928 0
-579 576 0
580 -712 -1 0
-580 712 0
-580 1 0
581 -580 -4 0
-581 580 0
-581 4 0
582 -929 -579 0
-582 929 0
-582 579 0
583 -718 -18 0
-583 718 0
-583 18 0
584 -583 -29 0
-584 583 0
-584 29 0
585 -930 -582 0
-585 930 0
-585 582 0
586 -48 -1 0
-586 48 0
-586 1 0
587 -586 -26 0
-587 586 0
-587 26 0
588 -931 -585 0
-588 931 0
-588 585 0
589 -812 -839 0
-589 812 0
-589 839 0
590 -589 -735 0
-590 589 0
-590 735 0
591 -932 -588 0
-591 932 0
-591 588 0
592 -749 -713 0
-592 749 0
-592 713 0
593 -592 -735 0
-593 592 0
-593 735 0
594 -933 -591 0
-594 933 0
-594 591 0
595 -50 -2 0
-595 50 0
-595 2 0
596 -595 -7 0
-596 595 0
-596 7 0
597 -934 -594 0
-597 934 0
-597 594 0
598 -18 -733 0
-598 18 0
-598 733 0
599 -598 -735 0
-599 598 0
-599 735 0
600 -935 -597 0
-600 935 0
-600 597 0
601 -20 -5 0
-601 20 0
-601 5 0
602 -601 -30 0
-602 601 0
-602 30 0
603 -936 -600 0
-603 936 0
-603 600 0
604 -802 -1 0
-604 802 0
-604 1 0
605 -604 -11 0
-605 604 0
-605 11 0
606 -937 -603 0
-606 937 0
-606 603 0
607 -759 -19 0
-607 759 0
-607 19 0
608 -607 -710 0
-608 607 0
-608 710 0
609 -938 -606 0
-609 938 0
-609 606 0
610 -745 -706 0
-610 745 0
-610 706 0
611 -610 -713 0
-611 610 0
-611 713 0
612 -939 -609 0
-612 939 0
-612 609 0
613 -43 -26 0
-613 43 0
-613 26 0
614 -613 -723 0
-614 613 0
-614 723 0
615 -940 -612 0
-615 940 0
-615 612 0
616 -31 -799 0
-616 31 0
-616 799 0
617 -616 -713 0
-617 616 0
-617 713 0
618 -941 -615 0
-618 941 0
-618 615 0
619 -41 -36 0
-619 41 0
-619 36 0
620 -619 -13 0
-620 619 0
-620 13 0
621 -942 -618 0
-621 942 0
-621 618 0
622 -812 -786 0
-622 812 0
-622 786 0
623 -622 -859 0
-623 622 0
-623 859 0
624 -943 -621 0
-624 943 0
-624 621 0
625 -737 -706 0
-625 737 0
-625 706 0
626 -625 -828 0
-626 625 0
-626 828 0
627 -944 -624 0
-627 944 0
-627 624 0
628 -15 -4 0
-628 15 0
-628 4 0
629 -628 -28 0
-629 628 0
-629 28 0
630 -945 -627 0
-630 945 0
-630 627 0
631 -737 -3 0
-631 737 0
-631 3 0
632 -631 -28 0
-632 631 0
-632 28 0
633 -946 -630 0
-633 946 0
-633 630 0
634 -789 -41 0
-634 789 0
-634 41 0
635 -634 -6 0
-635 634 0
-635 6 0
636 -947 -633 0
-636 947 0
-636 633 0
637 -861 -4 0
-637 861 0
-637 4 0
638 -637 -21 0
-638 637 0
-638 21 0
639 -948 -636 0
-639 948 0
-639 636 0
640 -44 -742 0
-640 44 0
-640 742 0
641 -640 -716 0
-641 640 0
-641 716 0
642 -949 -639 0
-642 949 0
-642 639 0
643 -749 -819 0
-643 749 0
-643 819 0
644 -643 -767 0
-644 643 0
-644 767 0
645 -950 -642 0
-645 950 0
-645 642 0
646 -46 -786 0
-646 46 0
-646 786 0
647 -646 -819 0
-647 646 0
-647 819 0
648 -951 -645 0
-648 951 0
-648 645 0
649 -773 -725 0
-649 773 0
-649 725 0
650 -649 -24 0
-650 649 0
-650 24 0
651 -952 -648 0
-651 952 0
-651 648 0
652 -740 -23 0
-652 740 0
-652 23 0
653 -652 -40 0
-653 652 0
-653 40 0
654 -953 -651 0
-654 953 0
-654 651 0
655 -861 -14 0
-655 861 0
-655 14 0
656 -655 -731 0
-656 655 0
-656 731 0
657 -954 -654 0
-657 954 0
-657 654 0
658 -44 -4 0
-658 44 0
-658 4 0
659 -658 -723 0
-659 658 0
-659 723 0
660 -955 -657 0
-660 955 0
-660 657 0
661 -32 -15 0
-661 32 0
-661 15 0
662 -661 -13 0
-662 661 0
-662 13 0
663 -956 -660 0
-663 956 0
-663 660 0
664 -38 -18 0
-664 38 0
-664 18 0
665 -664 -16 0
-665 664 0
-665 16 0
666 -957 -663 0
-666 957 0
-666 663 0
667 -7 -702 0
-667 7 0
-667 702 0
668 -667 -733 0
-668 667 0
-668 733 0
669 -958 -666 0
-669 958 0
-669 666 0
670 -31 -839 0
-670 31 0
-670 839 0
671 -670 -32 0
-671 670 0
-671 32 0
672 -959 -669 0
-672 959 0
-672 669 0
673 -712 -751 0
-673 712 0
-673 751 0
674 -673 -30 0
-674 673 0
-674 30 0
675 -960 -672 0
-675 960 0
-675 672 0
676 -749 -25 0
-676 749 0
-676 25 0
677 -676 -28 0
-677 676 0
-677 28 0
678 -961 -675 0
-678 961 0
-678 675 0
679 -41 -37 0
-679 41 0
-679 37 0
680 -679 -740 0
-680 679 0
-680 740 0
681 -962 -678 0
-681 962 0
-681 678 0
682 -36 -15 0
-682 36 0
-682 15 0
683 -682 -767 0
-683 682 0
-683 767 0
684 -963 -681 0
-684 963 0
-684 681 0
685 -775 -749 0
-685 775 0
-685 749 0
686 -685 -809 0
-686 685 0
-686 809 0
687 -964 -684 0
-687 964 0
-687 684 0
688 -658 -40 0
-688 658 0
-688 40 0
689 -965 -687 0
-689 965 0
-689 687 0
690 -36 -713 0
-690 36 0
-690 713 0
691 -690 -24 0
-691 690 0
-691 24 0
692 -966 -689 0
-692 966 0
-692 689 0
693 -775 -712 0
-693 775 0
-693 712 0
694 -693 -18 0
-694 693 0
-694 18 0
695 -967 -692 0
-695 967 0
-695 692 0
696 -34 -22 0
-696 34 0
-696 22 0
697 -696 -41 0
-697 696 0
-697 41 0
698 -968 -695 0
-698 968 0
-698 695 0
699 -35 -733 0
-699 35 0
-699 733 0
700 -699 -723 0
-700 699 0
-700 723 0
701 -969 -698 0
-701 969 0
-701 698 0
-702 -3 0
702 3 0
-703 -54 0
703 54 0
-704 -52 0
704 52 0
-705 -57 0
705 57 0
-706 -10 0
706 10 0
-707 -60 0
707 60 0
-708 -2 0
708 2 0
-709 -63 0
709 63 0
-710 -16 0
710 16 0
-711 -66 0
711 66 0
-712 -17 0
712 17 0
-713 -18 0
713 18 0
-714 -69 0
714 69 0
-715 -72 0
715 72 0
-716 -20 0
716 20 0
-717 -75 0
717 75 0
-718 -19 0
718 19 0
-719 -78 0
719 78 0
-720 -23 0
720 23 0
-721 -81 0
721 81 0
-722 -14 0
722 14 0
-723 -24 0
723 24 0
-724 -84 0
724 84 0
-725 -21 0
725 21 0
-726 -87 0
726 87 0
-727 -13 0
727 13 0
-728 -90 0
728 90 0
-729 -93 0
729 93 0
-730 -1 0
730 1 0
-731 -29 0
731 29 0
-732 -96 0
732 96 0
-733 -6 0
733 6 0
-734 -99 0
734 99 0
-735 -30 0
735 30 0
-736 -102 0
736 102 0
-737 -31 0
737 31 0
-738 -32 0
738 32 0
-739 -105 0
739 105 0
-740 -33 0
740 33 0
-741 -108 0
741 108 0
-742 -34 0
742 34 0
-743 -27 0
743 27 0
-744 -111 0
744 111 0
-745 -36 0
745 36 0
-746 -7 0
746 7 0
-747 -114 0
747 114 0
-748 -15 0
748 15 0
-749 -38 0
749 38 0
-750 -117 0
750 117 0
-751 -9 0
751 9 0
-752 -120 0
752 120 0
-753 -123 0
753 123 0
-754 -39 0
754 39 0
-755 -126 0
755 126 0
-756 -41 0
756 41 0
-757 -5 0
757 5 0
-758 -129 0
758 129 0
-759 -42 0
759 42 0
-760 -132 0
760 132 0
-761 -135 0
761 135 0
-762 -43 0
762 43 0
-763 -138 0
763 138 0
-764 -141 0
764 141 0
-765 -40 0
765 40 0
-766 -144 0
766 144 0
-767 -28 0
767 28 0
-768 -147 0
768 147 0
-769 -150 0
769 150 0
-770 -153 0
770 153 0
-771 -156 0
771 156 0
-772 -159 0
772 159 0
-773 -37 0
773 37 0
-774 -162 0
774 162 0
-775 -44 0
775 44 0
-776 -165 0
776 165 0
-777 -168 0
777 168 0
-778 -171 0
778 171 0
-779 -174 0
779 174 0
-780 -177 0
780 177 0
-781 -180 0
781 180 0
-782 -183 0
782 183 0
-783 -186 0
783 186 0
-784 -189 0
784 189 0
-785 -192 0
785 192 0
-786 -12 0
786 12 0
-787 -195 0
787 195 0
-788 -198 0
788 198 0
-789 -47 0
789 47 0
-790 -201 0
790 201 0
-791 -204 0
791 204 0
-792 -45 0
792 45 0
-793 -207 0
793 207 0
-794 -210 0
794 210 0
-795 -35 0
795 35 0
-796 -213 0
796 213 0
-797 -26 0
797 26 0
-798 -216 0
798 216 0
-799 -25 0
799 25 0
-800 -219 0
800 219 0
-801 -222 0
801 222 0
-802 -48 0
802 48 0
-803 -225 0
803 225 0
-804 -228 0
804 228 0
-805 -231 0
805 231 0
-806 -234 0
806 234 0
-807 -237 0
807 237 0
-808 -240 0
808 240 0
-809 -11 0
809 11 0
-810 -243 0
810 243 0
-811 -246 0
811 246 0
-812 -46 0
812 46 0
-813 -249 0
813 249 0
-814 -252 0
814 252 0
-815 -255 0
815 255 0
-816 -258 0
816 258 0
-817 -261 0
817 261 0
-818 -264 0
818 264 0
-819 -8 0
819 8 0
-820 -267 0
820 267 0
-821 -270 0
821 270 0
-822 -273 0
822 273 0
-823 -276 0
823 276 0
-824 -279 0
824 279 0
-825 -282 0
825 282 0
-826 -285 0
826 285 0
-827 -288 0
827 288 0
-828 -49 0
828 49 0
-829 -291 0
829 291 0
-830 -294 0
830 294 0
-831 -297 0
831 297 0
-832 -300 0
832 300 0
-833 -303 0
833 303 0
-834 -306 0
834 306 0
-835 -309 0
835 309 0
-836 -312 0
836 312 0
-837 -315 0
837 315 0
-838 -318 0
838 318 0
-839 -22 0
839 22 0
-840 -321 0
840 321 0
-841 -324 0
841 324 0
-842 -327 0
842 327 0
-843 -330 0
843 330 0
-844 -333 0
844 333 0
-845 -336 0
845 336 0
-846 -339 0
846 339 0
-847 -342 0
847 342 0
-848 -345 0
848 345 0
-849 -348 0
849 348 0
-850 -351 0
850 351 0
-851 -354 0
851 354 0
-852 -357 0
852 357 0
-853 -360 0
853 360 0
-854 -363 0
854 363 0
-855 -366 0
855 366 0
-856 -369 0
856 369 0
-857 -372 0
857 372 0
-858 -375 0
858 375 0
-859 -4 0
859 4 0
-860 -378 0
860 378 0
-861 -50 0
861 50 0
-862 -381 0
862 381 0
-863 -384 0
863 384 0
-864 -387 0
864 387 0
-865 -390 0
865 390 0
-866 -393 0
866 393 0
-867 -396 0
867 396 0
-868 -399 0
868 399 0
-869 -402 0
869 402 0
-870 -405 0
870 405 0
-871 -408 0
871 408 0
-872 -411 0
872 411 0
-873 -414 0
873 414 0
-874 -417 0
874 417 0
-875 -420 0
875 420 0
-876 -423 0
876 423 0
-877 -426 0
877 426 0
-878 -429 0
878 429 0
-879 -432 0
879 432 0
-880 -435 0
880 435 0
-881 -438 0
881 438 0
-882 -441 0
882 441 0
-883 -444 0
883 444 0
-884 -446 0
884 446 0
-885 -449 0
885 449 0
-886 -452 0
886 452 0
-887 -455 0
887 455 0
-888 -458 0
888 458 0
-889 -461 0
889 461 0
-890 -464 0
890 464 0
-891 -467 0
891 467 0
-892 -470 0
892 470 0
-893 -473 0
893 473 0
-894 -476 0
894 476 0
-895 -479 0
895 479 0
-896 -482 0
896 482 0
-897 -485 0
897 485 0
-898 -488 0
898 488 0
-899 -491 0
899 491 0
-900 -494 0
900 494 0
-901 -497 0
901 497 0
-902 -500 0
902 500 0
-903 -503 0
903 503 0
-904 -506 0
904 506 0
-905 -509 0
905 509 0
-906 -512 0
906 512 0
-907 -515 0
907 515 0
-908 -518 0
908 518 0
-909 -521 0
909 521 0
-910 -524 0
910 524 0
-911 -527 0
911 527 0
-912 -530 0
912 530 0
-913 -533 0
913 533 0
-914 -536 0
914 536 0
-915 -539 0
915 539 0
-916 -542 0
916 542 0
-917 -545 0
917 545 0
-918 -548 0
918 548 0
-919 -551 0
919 551 0
-920 -554 0
920 554 0
-921 -557 0
921 557 0
-922 -560 0
922 560 0
-923 -563 0
923 563 0
-924 -566 0
924 566 0
-925 -569 0
925 569 0
-926 -572 0
926 572 0
-927 -575 0
927 575 0
-928 -578 0
928 578 0
-929 -581 0
929 581 0
-930 -584 0
930 584 0
-931 -587 0
931 587 0
-932 -590 0
932 590 0
-933 -593 0
933 593 0
-934 -596 0
934 596 0
-935 -599 0
935 599 0
-936 -602 0
936 602 0
-937 -605 0
937 605 0
-938 -608 0
938 608 0
-939 -611 0
939 611 0
-940 -614 0
940 614 0
-941 -617 0
941 617 0
-942 -620 0
942 620 0
-943 -623 0
943 623 0
-944 -626 0
944 626 0
-945 -629 0
945 629 0
-946 -632 0
946 632 0
-947 -635 0
947 635 0
-948 -638 0
948 638 0
-949 -641 0
949 641 0
-950 -644 0
950 644 0
-951 -647 0
951 647 0
-952 -650 0
952 650 0
-953 -653 0
953 653 0
-954 -656 0
954 656 0
-955 -659 0
955 659 0
-956 -662 0
956 662 0
-957 -665 0
957 665 0
-958 -668 0
958 668 0
-959 -671 0
959 671 0
-960 -674 0
960 674 0
-961 -677 0
961 677 0
-962 -680 0
962 680 0
-963 -683 0
963 683 0
-964 -686 0
964 686 0
-965 -688 0
965 688 0
-966 -691 0
966 691 0
-967 -694 0
967 694 0
-968 -697 0
968 697 0
-969 -700 0
969 700 0
701 0
